Data path: /scratch/opt/lxu/CFLG/benchmarks/tree_B
Instance: treeB.300.45
Result path: /scratch/opt/lxu/CFLG/results/tree_B
Solver: Gurobi
Time limit: 7200
Formulation: LEFPA
Cover: Small
julia --project=. src/main.jl /scratch/opt/lxu/CFLG/benchmarks/tree_B treeB.300.45 /scratch/opt/lxu/CFLG/results/tree_B Gurobi 7200 LEFPA Small
The latest version of Julia in the `release` channel is 1.11.5+0.x64.linux.gnu. You currently have `1.11.4+0.x64.linux.gnu` installed. Run:

  juliaup update

in your terminal shell to install Julia 1.11.5+0.x64.linux.gnu and update the `release` channel to that version.
/scratch/opt/lxu/CFLG/benchmarks/tree_B Gurobi 7200.0 /scratch/opt/lxu/CFLG/results/tree_B treeB.300.45 LEFPA Small
/scratch/opt/lxu/CFLG/benchmarks/tree_B/treeB.300.45

 read graph
data loaded


after absorb:224 300

max_piece:18
problem_graph/original graph: node: 224/300 edge: 268/344 dlt: 0.37538583383699425 break_avg_len: 1.927354131939196 break_max_len: 6.276914005941521Vbar/V, Ebar/E(98, 224, 142, 268)
Set parameter TokenServer to value "solice01.zib.de"
Set parameter Threads to value 1
Set parameter OutputFlag to value 1
Gurobi Optimizer version 12.0.1 build v12.0.1rc0 (linux64 - "Debian GNU/Linux 12 (bookworm)")

CPU model: Intel(R) Xeon(R) Gold 5222 CPU @ 3.80GHz, instruction set [SSE2|AVX|AVX2|AVX512]
Thread count: 8 physical cores, 16 logical processors, using up to 1 threads

Non-default parameters:
Threads  1

Optimize a model with 350 rows, 591 columns and 985 nonzeros
Model fingerprint: 0xa8ceaf49
Coefficient statistics:
  Matrix range     [1e+00, 1e+00]
  Objective range  [1e+00, 1e+00]
  Bounds range     [1e+00, 1e+00]
  RHS range        [1e+00, 1e+00]
Presolve removed 350 rows and 591 columns
Presolve time: 0.00s
Presolve: All rows and columns removed
Iteration    Objective       Primal Inf.    Dual Inf.      Time
       0    5.5000000e+01   0.000000e+00   0.000000e+00      0s

Solved in 0 iterations and 0.00 seconds (0.00 work units)
Optimal objective  5.500000000e+01

User-callback calls 35, time in user-callback 0.00 sec
elapsed CPU time: 1.141618 seconds
Set parameter TokenServer to value "solice01.zib.de"
Set parameter Threads to value 1
Set parameter OutputFlag to value 1
Set parameter MIPGap to value 0.0001
Set parameter MIPGapAbs to value 0.999998
Set parameter TimeLimit to value 7198.858382

 more cuts: false 0.37538583383699425 false
is_attach:trueformulation:LEFPA0 197 0

 model loaded

Gurobi Optimizer version 12.0.1 build v12.0.1rc0 (linux64 - "Debian GNU/Linux 12 (bookworm)")

CPU model: Intel(R) Xeon(R) Gold 5222 CPU @ 3.80GHz, instruction set [SSE2|AVX|AVX2|AVX512]
Thread count: 8 physical cores, 16 logical processors, using up to 1 threads

Non-default parameters:
TimeLimit  7198.858382
MIPGapAbs  0.999998
Threads  1

Optimize a model with 2329 rows, 1782 columns and 5662 nonzeros
Model fingerprint: 0x7fa350f3
Variable types: 547 continuous, 1235 integer (1235 binary)
Coefficient statistics:
  Matrix range     [4e-04, 7e+00]
  Objective range  [1e+00, 1e+00]
  Bounds range     [4e-04, 6e+00]
  RHS range        [1e-06, 7e+00]
Presolve removed 2329 rows and 1782 columns
Presolve time: 0.00s
Presolve: All rows and columns removed

Explored 0 nodes (0 simplex iterations) in 0.00 seconds (0.00 work units)
Thread count was 1 (of 16 available processors)

Solution count 1: 451 

Optimal solution found (tolerance 1.00e-04)
Best objective 4.510000000000e+02, best bound 4.510000000000e+02, gap 0.0000%

User-callback calls 611, time in user-callback 0.00 sec

 sepatime0 0 0
451.0Stat(MathOptInterface.OPTIMAL, 451.0, 451.0, 0.0, 0.0, 1.141618, 0.0033338069915771484, 0, Main.CFLG.LEFPA, "", #undef)
ERROR: LoadError: SystemError: opening file "/scratch/opt/lxu/CFLG/results/tree_B/treeB.300.45.LEFPA.Small": No such file or directory
Stacktrace:
 [1] systemerror(p::String, errno::Int32; extrainfo::Nothing)
   @ Base ./error.jl:176
 [2] systemerror
   @ ./error.jl:175 [inlined]
 [3] open(fname::String; lock::Bool, read::Nothing, write::Nothing, create::Nothing, truncate::Bool, append::Nothing)
   @ Base ./iostream.jl:295
 [4] open
   @ ./iostream.jl:277 [inlined]
 [5] open(fname::String, mode::String; lock::Bool)
   @ Base ./iostream.jl:358
 [6] open
   @ ./iostream.jl:357 [inlined]
 [7] main(args::Vector{String})
   @ Main /scratch/opt/lxu/CFLG/src/main.jl:51
 [8] top-level scope
   @ /scratch/opt/lxu/CFLG/src/main.jl:57
in expression starting at /scratch/opt/lxu/CFLG/src/main.jl:57
srun: error: htc-cmp486: task 0: Exited with exit code 1
